HFSDDW
15	8	4
0	29	1	17	2	18	3	25
0	34	1	55	2	49	3	28
0	74	1	65	2	85	3	92
0	67	1	79	2	63	3	79
0	51	1	77	2	26	3	53
0	78	1	1	2	14	3	83
0	58	1	25	2	16	3	40
0	6	1	52	2	53	3	75
0	53	1	91	2	48	3	79
0	56	1	33	2	82	3	41
0	52	1	21	2	13	3	3
0	83	1	46	2	24	3	95
0	41	1	86	2	53	3	36
0	54	1	54	2	41	3	29
0	3	1	35	2	66	3	10
LBCmax: 472
RELDUE
-1	273	6	8
-1	244	2	9
-1	256	2	1
-1	257	2	9
-1	247	2	9
-1	245	2	2
-1	273	9	5
-1	307	2	7
-1	266	2	6
-1	315	7	1
-1	258	4	9
-1	253	9	9
-1	326	7	1
-1	317	5	6
-1	237	6	6
DDW
254	292
222	266
220	292
229	285
205	289
223	267
221	325
286	328
237	295
309	321
248	268
245	261
323	329
301	333
190	284
